(set-info :origin "driver benchmark extracted from Microsoft SDV")
(set-logic HORN)
(declare-fun Proc25 (Int Int Int Int Bool Int) Bool)
(declare-fun Proc35 (Int Int Int Int Bool) Bool)
(declare-fun Proc8 (Int Int Int Int Bool Int Int Int Int Int) Bool)
(declare-fun Proc0 (Int Int Int Int Bool Int Int Int Int Int Int) Bool)
(declare-fun Proc22 (Int Int Int Int Bool Int) Bool)
(declare-fun Proc1 (Int Int Int Int Bool Int Int) Bool)
(declare-fun Proc30 (Int Int Int Int Bool Int) Bool)
(declare-fun Proc26 (Int Int Int Int Bool Int) Bool)
(declare-fun Proc7 (Int Int Int Int Bool Int Int Int Int Int) Bool)
(declare-fun Proc2 (Int Int Int Int Bool) Bool)
(declare-fun Proc9 (Int Int Int Int Bool Int Int) Bool)
(declare-fun Proc12 (Int Int Int Int Bool) Bool)
(declare-fun Proc27 (Int Int Int Int Bool Int) Bool)
(declare-fun Proc17 (Int Int Int Int Bool Int Int Int Int Bool Int) Bool)
(declare-fun Proc14 (Int Int Int Int Bool Int Int Int) Bool)
(declare-fun Proc36 (Int Int Int Int Bool Int Bool Int Int Int Int) Bool)
(declare-fun Proc21 (Int Int Int Int Bool Int) Bool)
(declare-fun Proc11 (Int Int Int Int Bool Int Int Int Int) Bool)
(declare-fun Proc16 (Int Int Int Int Bool Int Int Int Int) Bool)
(declare-fun Proc6 (Int Int Int Int Bool Int Int Int Int) Bool)
(declare-fun Proc18 (Int Int Int Int Bool Int) Bool)
(declare-fun Proc13 (Int Int Int Int Bool) Bool)
(declare-fun Proc20 (Int Int Int Int Bool Int) Bool)
(declare-fun Proc28 (Int Int Int Int Bool Int) Bool)
(declare-fun Proc4 (Int Int Int Int Bool Int Int) Bool)
(declare-fun Proc3 (Int Int Int Int Bool Int Int) Bool)
(declare-fun Proc32 (Int Int Int Int Bool) Bool)
(declare-fun Proc29 (Int Int Int Int Bool Int) Bool)
(declare-fun Proc19 (Int Int Int Int Bool Int) Bool)
(declare-fun Proc31 (Int Int Int Int Bool Int) Bool)
(declare-fun Proc34 (Int Int Int Int Bool Int Int Int Int Int Int) Bool)
(declare-fun Proc5 (Int Int Int Int Bool Int Int Int) Bool)
(declare-fun Proc24 (Int Int Int Int Bool Int) Bool)
(declare-fun Proc15 (Int Int Int Int Bool Int) Bool)
(declare-fun Proc10 (Int Int Int Int Bool Int Int Int Int) Bool)
(declare-fun Proc33 (Int Int Int Int Bool Int Int) Bool)
(declare-fun Proc23 (Int Int Int Int Bool Int) Bool)
(assert (forall ((A Int)
         (B Int)
         (C Int)
         (D Int)
         (E Int)
         (F Int)
         (G Int)
         (H Int)
         (I Int)
         (J Int)
         (K Int)
         (L Int)
         (M Int)
         (N Int)
         (O Bool))
  (let ((a!1 (not (and (= K (- 1073741801)) (= J K))))
        (a!4 (not (and (= H (- 1073741811)) (= J H))))
        (a!6 (not (and (= G (- 1073741816)) (= J G)))))
  (let ((a!2 (and (or a!1 (not (= I J))) (or (not (= J 0)) (not (= I J))))))
  (let ((a!3 (and (or (= L 0) a!2)
                  (or (not (= L 0)) (not (= J 0)) (not (= I J))))))
  (let ((a!5 (and (or (not (<= M 128)) a!3) (or (<= M 128) a!4 (not (= I J))))))
  (let ((a!7 (and (or (= N 0) a!5) (or (not (= N 0)) a!6 (not (= I J))))))
    (=> (not (or (not O) a!7)) (Proc0 F E D C O N B L M A I)))))))))
(assert (forall ((A Int)
         (B Int)
         (C Int)
         (D Int)
         (E Int)
         (F Int)
         (G Int)
         (H Int)
         (I Int)
         (J Int)
         (K Int)
         (L Int)
         (M Int)
         (N Int)
         (O Bool)
         (P Int)
         (Q Int)
         (R Int)
         (S Int)
         (T Int)
         (U Int)
         (V Int)
         (W Int))
  (let ((a!1 (not (and (not (= S 0)) (not (= R 0)))))
        (a!2 (not (and (= M 0) (= L P) (= K N))))
        (a!4 (and (not (<= I (+ 1 J))) (not (<= I W)))))
  (let ((a!3 (or (= S V)
                 (not (and (= P W) (= N U)))
                 (not (Proc3 P V N T O S 0))
                 a!2))
        (a!5 (or (not (= S V))
                 (not (= J W))
                 (not a!4)
                 (not (Proc4 I V U T O J H))
                 (not (and (= P I) (= N H)))
                 (not (Proc3 P V N T O S 0))
                 a!2)))
  (let ((a!6 (and (or (= E 0)
                      (not (Proc6 W V U T O D C 0 B))
                      (= S 0)
                      (and a!3 a!5))
                  (or (not (= E 0)) (= S 0) (and a!3 a!5)))))
  (let ((a!7 (and (or (not (Proc5 W V U T O G F E)) a!6)
                  (or (= S 0) (and a!3 a!5)))))
  (let ((a!8 (and (or (= Q 2236420) (= S 0) (and a!3 a!5))
                  (or (not (= Q 2236420)) a!7))))
  (let ((a!9 (not (or (not O)
                      (not (Proc1 W V U T O S R))
                      (= R 0)
                      (not (Proc2 W V U T O))
                      a!1
                      a!8))))
    (=> a!9 (Proc7 W V U T O A S M L K))))))))))
(assert (forall ((A Int)
         (B Int)
         (C Int)
         (D Int)
         (E Int)
         (F Int)
         (G Int)
         (H Int)
         (I Int)
         (J Int)
         (K Int)
         (L Int)
         (M Int)
         (N Int)
         (O Bool))
  (let ((a!1 (not (and (= G 0) (= F H) (= E I))))
        (a!3 (and (not (<= C (+ 1 D))) (not (<= C N)))))
  (let ((a!2 (or (= J M)
                 (not (and (= I L) (= H N)))
                 (not (Proc3 H M I K O J 0))
                 a!1))
        (a!4 (or (not (= J M))
                 (not (= D N))
                 (not a!3)
                 (not (Proc4 C M L K O D B))
                 (not (and (= I B) (= H C)))
                 (not (Proc3 H M I K O J 0))
                 a!1)))
  (let ((a!5 (not (or (not O) (not (Proc2 N M L K O)) (= J 0) (and a!2 a!4)))))
    (=> a!5 (Proc8 N M L K O A J G F E)))))))
(assert (forall ((A Int)
         (B Int)
         (C Int)
         (D Int)
         (E Int)
         (F Int)
         (G Int)
         (H Int)
         (O Bool))
  (let ((a!1 (not (and (not (= H 0)) (not (= G 0)))))
        (a!2 (and (or (not (= F 1)) (not (= E F)))
                  (or (not (= F 0)) (not (= E F))))))
  (let ((a!3 (and (or (not (= F 0)) (not (= E F)))
                  (or (= H 0) a!2)
                  (or (not (= F 1)) (not (= E F))))))
  (let ((a!4 (and (or (not (= F 0)) (not (= E F))) (or (= G 0) a!3))))
  (let ((a!5 (or (not O) a!1 (and (or (= H 0) a!4) (or (= G 0) a!3)))))
    (=> (not a!5) (Proc5 D C B A O H G E))))))))
(assert (forall ((A Int)
         (B Int)
         (C Int)
         (D Int)
         (E Int)
         (F Int)
         (G Int)
         (H Int)
         (I Int)
         (J Int)
         (K Int)
         (O Bool))
  (let ((a!1 (and (not (<= I (+ 1 K))) (not (<= I J)))))
  (let ((a!2 (or (not O)
                 (not (= K J))
                 (not a!1)
                 (not (Proc9 I H G F O K E))
                 (not (and (= D I) (= C E))))))
    (=> (not a!2) (Proc10 J H G F O B A D C))))))
(assert (forall ((A Int) (B Int) (C Int) (D Int) (E Int) (F Int) (O Bool))
  (let ((a!1 (not (or (not O) (not (= F 1))))))
    (=> a!1 (Proc9 E D C B O A F)))))
(assert (forall ((A Int) (B Int) (C Int) (D Int) (E Int) (F Int) (O Bool))
  (let ((a!1 (not (or (not O) (not (= F 1))))))
    (=> a!1 (Proc4 E D C B O A F)))))
(assert (forall ((A Int)
         (B Int)
         (C Int)
         (D Int)
         (E Int)
         (F Int)
         (G Int)
         (H Int)
         (I Int)
         (J Int)
         (K Int)
         (L Int)
         (O Bool))
  (let ((a!1 (or (= L 0)
                 (not (and (= K J) (= I H)))
                 (not (and (= G I) (= F K)))))
        (a!2 (or (= E 0)
                 (not (and (= K J) (= I H)))
                 (not (and (= G I) (= F K)))))
        (a!3 (or (not (= A 1))
                 (not (and (= K A) (= I B)))
                 (not (and (= G I) (= F K)))))
        (a!4 (or (= A 1)
                 (not (and (= K A) (= I B)))
                 (not (and (= G I) (= F K))))))
  (let ((a!5 (and a!2
                  (or (not (= E 0))
                      (not (Proc10 H D L J O C E B A))
                      (and a!3 a!4)))))
  (let ((a!6 (and a!1 (or (not (= L 0)) a!5))))
    (=> (not (or (not O) a!6)) (Proc11 H D L J O C E G F)))))))
(assert (forall ((A Int)
         (B Int)
         (C Int)
         (D Int)
         (E Int)
         (F Int)
         (G Int)
         (H Int)
         (I Int)
         (O Bool))
  (let ((a!1 (not (or (not O) (not (Proc0 I H G F O E D C 0 0 B)) (not (= A B))))))
    (=> a!1 (Proc6 I H G F O E D C A)))))
(assert (forall ((A Int) (B Int) (C Int) (D Int) (O Bool)) (=> O (Proc12 D C B A O))))
(assert (forall ((A Int) (B Int) (C Int) (D Int) (O Bool)) (=> O (Proc13 D C B A O))))
(assert (forall ((A Int)
         (B Int)
         (C Int)
         (D Int)
         (E Int)
         (F Int)
         (G Int)
         (H Int)
         (O Bool))
  (let ((a!1 (or (not O) (not (and (= H G) (= F 0) (= E 0))))))
    (=> (not a!1) (Proc14 D C B A O H F E)))))
(assert (forall ((A Int)
         (B Int)
         (C Int)
         (D Int)
         (E Int)
         (F Int)
         (G Int)
         (H Int)
         (I Int)
         (J Int)
         (K Int)
         (L Int)
         (M Int)
         (N Int)
         (O Bool)
         (P Int)
         (Q Int)
         (R Int)
         (S Int)
         (T Int)
         (U Int)
         (X Bool)
         (Y Bool)
         (Z Bool))
  (let ((a!1 (not (and (not (<= U 0)) (Proc15 U T S R Z Q))))
        (a!2 (not (and (= F H) (= E L) (= D J) (= C I) (= X Y) (= B K)))))
  (let ((a!3 (or (= I 0) (not (and (= H G) (not Y))) a!2))
        (a!4 (or (not (and (= I 0) (= O Z))) (not (and (= H A) (= Y O))) a!2)))
  (let ((a!5 (and (or (= I 1) (and a!3 a!4)) (or (not (= I 1)) (and a!3 a!4)))))
  (let ((a!6 (not (or (not Z)
                      a!1
                      (not (Proc14 Q T S R Z P N M))
                      (not (Proc13 Q P N M Z))
                      (not (Proc12 Q P N M Z))
                      (not (Proc16 Q P N M Z L K J I))
                      a!5))))
    (=> a!6 (Proc17 U T S R Z F E D C X B))))))))
(assert (forall ((A Int) (B Int) (C Int) (D Int) (E Int) (O Bool))
  (let ((a!1 (not (or (not O) (not (= E 0))))))
    (=> a!1 (Proc18 D C B A O E)))))
(assert (forall ((A Int) (B Int) (C Int) (D Int) (E Int) (O Bool))
  (let ((a!1 (not (or (not O) (not (= E 0))))))
    (=> a!1 (Proc19 D C B A O E)))))
(assert (forall ((A Int) (B Int) (C Int) (D Int) (E Int) (O Bool))
  (let ((a!1 (not (or (not O) (not (= E 1))))))
    (=> a!1 (Proc20 D C B A O E)))))
(assert (forall ((A Int) (B Int) (C Int) (D Int) (E Int) (O Bool))
  (let ((a!1 (not (or (not O) (not (= E 0))))))
    (=> a!1 (Proc21 D C B A O E)))))
(assert (forall ((A Int) (B Int) (C Int) (D Int) (E Int) (O Bool))
  (let ((a!1 (not (or (not O) (not (= E 1))))))
    (=> a!1 (Proc22 D C B A O E)))))
(assert (forall ((A Int) (B Int) (C Int) (D Int) (E Int) (O Bool))
  (let ((a!1 (not (or (not O) (not (= E 0))))))
    (=> a!1 (Proc23 D C B A O E)))))
(assert (forall ((A Int) (B Int) (C Int) (D Int) (E Int) (O Bool))
  (let ((a!1 (not (or (not O) (not (= E 0))))))
    (=> a!1 (Proc24 D C B A O E)))))
(assert (forall ((A Int) (B Int) (C Int) (D Int) (E Int) (O Bool))
  (let ((a!1 (not (or (not O) (not (= E 0))))))
    (=> a!1 (Proc25 D C B A O E)))))
(assert (forall ((A Int) (B Int) (C Int) (D Int) (E Int) (O Bool))
  (let ((a!1 (not (or (not O) (not (= E 0))))))
    (=> a!1 (Proc26 D C B A O E)))))
(assert (forall ((A Int) (B Int) (C Int) (D Int) (E Int) (O Bool))
  (let ((a!1 (not (or (not O) (not (= E 0))))))
    (=> a!1 (Proc27 D C B A O E)))))
(assert (forall ((A Int) (B Int) (C Int) (D Int) (E Int) (O Bool))
  (let ((a!1 (not (or (not O) (not (= E 0))))))
    (=> a!1 (Proc28 D C B A O E)))))
(assert (forall ((A Int) (B Int) (C Int) (D Int) (E Int) (F Int) (O Bool))
  (let ((a!1 (or (not O) (not (= F (- 1073741823))) (not (= E F)))))
    (=> (not a!1) (Proc29 D C B A O E)))))
(assert (forall ((A Int) (B Int) (C Int) (D Int) (E Int) (F Int) (O Bool))
  (=> O (Proc3 F E D C O B A))))
(assert (forall ((A Int) (B Int) (C Int) (D Int) (E Int) (O Bool))
  (let ((a!1 (not (or (not O) (not (= E 0))))))
    (=> a!1 (Proc30 D C B A O E)))))
(assert (forall ((A Int) (B Int) (C Int) (D Int) (E Int) (F Int) (G Int) (O Bool))
  (let ((a!1 (not (or (not O) (= G 0) (not (= F E))))))
    (=> a!1 (Proc1 D C B A O G F)))))
(assert (forall ((A Int)
         (B Int)
         (C Int)
         (D Int)
         (E Int)
         (F Int)
         (G Int)
         (H Int)
         (I Int)
         (J Int)
         (K Int)
         (L Int)
         (M Int)
         (N Int)
         (O Bool)
         (P Int)
         (Q Int)
         (R Int)
         (S Int)
         (T Int)
         (U Int)
         (V Int)
         (W Int)
         (A1 Int)
         (B1 Int)
         (C1 Int)
         (D1 Int)
         (E1 Int)
         (F1 Int)
         (G1 Int)
         (H1 Int)
         (I1 Int)
         (J1 Int)
         (K1 Int)
         (L1 Int)
         (M1 Int)
         (N1 Int)
         (O1 Int)
         (P1 Int)
         (Q1 Int)
         (R1 Int)
         (S1 Int)
         (T1 Int)
         (U1 Int)
         (V1 Int)
         (W1 Int)
         (X1 Int)
         (Y1 Int)
         (Z1 Int)
         (A2 Int))
  (let ((a!1 (not (and (= I1 L1) (= H1 K1) (= G1 O1) (= F1 J1))))
        (a!3 (and (not (<= D1 (+ 1 E1))) (not (<= D1 P1)))))
  (let ((a!2 (or (= A2 Y1)
                 (not (and (= N1 W1) (= M1 P1)))
                 (not (Proc33 M1 Y1 O1 N1 O Q1 A2))
                 (= A2 0)
                 (not (= L1 Q1))
                 (not (and (= K1 M1) (= J1 N1)))
                 a!1))
        (a!4 (or (not (and (= B1 1) (= L1 A1) (= K1 C1) (= J1 B1))) a!1))
        (a!5 (or (= B1 1)
                 (not (and (= N1 B1) (= M1 C1)))
                 (not (Proc33 M1 Y1 O1 N1 O Q1 A2))
                 (= A2 0)
                 (not (= L1 Q1))
                 (not (and (= K1 M1) (= J1 N1)))
                 a!1)))
  (let ((a!6 (and a!2
                  (or (not (= A2 Y1))
                      (not (= E1 P1))
                      (not a!3)
                      (not (Proc11 D1 Y1 O1 W1 O E1 Q1 C1 B1))
                      (and a!4 a!5)))))
  (let ((a!7 (or (= V1 0)
                 (not (Proc8 Z1 Y1 X1 W1 O U1 A2 T1 S1 R1))
                 (not (= Q1 T1))
                 (not (and (= P1 S1) (= O1 R1)))
                 a!6))
        (a!8 (or (= V1 0)
                 (not (Proc8 Z1 Y1 X1 W1 O U1 A2 W V U))
                 (not (= Q1 W))
                 (not (and (= P1 V) (= O1 U)))
                 a!6))
        (a!9 (or (= V1 0)
                 (not (Proc29 Z1 Y1 X1 W1 O T))
                 (not (= Q1 T))
                 (not (and (= P1 Z1) (= O1 X1)))
                 a!6))
        (a!10 (or (= V1 0)
                  (not (Proc29 Z1 Y1 X1 W1 O S))
                  (not (= Q1 S))
                  (not (and (= P1 Z1) (= O1 X1)))
                  a!6))
        (a!11 (or (= V1 0)
                  (not (Proc29 Z1 Y1 X1 W1 O R))
                  (not (= Q1 R))
                  (not (and (= P1 Z1) (= O1 X1)))
                  a!6))
        (a!12 (or (= V1 0)
                  (not (Proc29 Z1 Y1 X1 W1 O Q))
                  (not (= Q1 Q))
                  (not (and (= P1 Z1) (= O1 X1)))
                  a!6))
        (a!13 (or (= V1 0)
                  (not (Proc29 Z1 Y1 X1 W1 O P))
                  (not (= Q1 P))
                  (not (and (= P1 Z1) (= O1 X1)))
                  a!6))
        (a!14 (or (not (Proc29 Z1 Y1 X1 W1 O N))
                  (not (= Q1 N))
                  (not (and (= P1 Z1) (= O1 X1)))
                  a!6))
        (a!15 (or (= V1 0)
                  (not (Proc7 Z1 Y1 X1 W1 O U1 A2 M L K))
                  (not (= Q1 M))
                  (not (and (= P1 L) (= O1 K)))
                  a!6))
        (a!16 (or (= V1 0)
                  (not (Proc29 Z1 Y1 X1 W1 O J))
                  (not (= Q1 J))
                  (not (and (= P1 Z1) (= O1 X1)))
                  a!6))
        (a!17 (or (= V1 0)
                  (not (Proc29 Z1 Y1 X1 W1 O I))
                  (not (= Q1 I))
                  (not (and (= P1 Z1) (= O1 X1)))
                  a!6))
        (a!18 (or (not (Proc29 Z1 Y1 X1 W1 O H))
                  (not (= Q1 H))
                  (not (and (= P1 Z1) (= O1 X1)))
                  a!6))
        (a!19 (or (= V1 0)
                  (not (Proc29 Z1 Y1 X1 W1 O G))
                  (not (= Q1 G))
                  (not (and (= P1 Z1) (= O1 X1)))
                  a!6))
        (a!20 (or (= V1 0)
                  (not (Proc29 Z1 Y1 X1 W1 O F))
                  (not (= Q1 F))
                  (not (and (= P1 Z1) (= O1 X1)))
                  a!6))
        (a!21 (or (= V1 0)
                  (not (Proc29 Z1 Y1 X1 W1 O E))
                  (not (= Q1 E))
                  (not (and (= P1 Z1) (= O1 X1)))
                  a!6))
        (a!22 (or (not (Proc29 Z1 Y1 X1 W1 O D))
                  (not (= Q1 D))
                  (not (and (= P1 Z1) (= O1 X1)))
                  a!6))
        (a!23 (or (= V1 0)
                  (not (Proc29 Z1 Y1 X1 W1 O C))
                  (not (= Q1 C))
                  (not (and (= P1 Z1) (= O1 X1)))
                  a!6))
        (a!24 (or (not (= B 1))
                  (= B 0)
                  (= V1 0)
                  (not (Proc29 Z1 Y1 X1 W1 O C))
                  (not (= Q1 C))
                  (not (and (= P1 Z1) (= O1 X1)))
                  a!6)))
  (let ((a!25 (and (or (= V1 0) (and a!23 a!24))
                   (or (not (= A 1)) (= A 0) (= V1 0) (and a!23 a!24)))))
  (let ((a!26 (or (not O)
                  (= A2 0)
                  (not (Proc31 Z1 Y1 X1 W1 O A2))
                  (= V1 0)
                  (not (Proc32 Z1 Y1 X1 W1 O))
                  (and a!7
                       a!8
                       a!9
                       a!10
                       a!11
                       a!12
                       a!13
                       a!14
                       a!15
                       a!16
                       a!17
                       a!18
                       a!19
                       a!20
                       a!21
                       a!22
                       (or (= V1 0) a!25)))))
    (=> (not a!26) (Proc34 Z1 Y1 X1 W1 O U1 A2 I1 H1 G1 F1))))))))))
(assert (forall ((A Int) (B Int) (C Int) (D Int) (E Int) (O Bool))
  (=> (not (or (not O) (= E 0))) (Proc31 D C B A O E))))
(assert (forall ((A Int) (B Int) (C Int) (D Int) (O Bool)) (=> O (Proc2 D C B A O))))
(assert (forall ((A Int)
         (B Int)
         (C Int)
         (D Int)
         (E Int)
         (F Int)
         (G Int)
         (H Int)
         (I Int)
         (J Int)
         (K Int)
         (L Int)
         (M Int)
         (N Int)
         (O Bool)
         (P Int)
         (Q Int)
         (R Int)
         (S Int)
         (T Int)
         (U Int)
         (V Int)
         (W Int)
         (A1 Int)
         (B1 Int)
         (C1 Int)
         (D1 Int)
         (E1 Int)
         (F1 Int)
         (G1 Int)
         (H1 Int))
  (let ((a!1 (not (and (= K H1) (= J N) (= I M) (= H L))))
        (a!4 (not (and (not (= B 1)) (= N D) (= M C) (= L B)))))
  (let ((a!2 (or (not (= N G1)) (not (and (= M F1) (= L E1))) a!1))
        (a!3 (or (not (and (= B 1) (= N D) (= M C) (= L B))) a!1))
        (a!5 (or (not (and (= D1 0) (= N G1) (= M F1) (= L E1))) a!1)))
  (let ((a!6 (and a!2
                  (or (= D1 0)
                      (not (Proc35 G1 H1 F1 E1 O))
                      (not (Proc34 G1 H1 F1 E1 O G F E D C B))
                      (and a!3 (or a!4 a!1)))
                  a!5)))
  (let ((a!7 (not (or (not O)
                      (= H1 0)
                      (not (Proc20 G1 H1 F1 E1 O D1))
                      (not (Proc27 G1 H1 F1 E1 O C1))
                      (not (Proc21 G1 H1 F1 E1 O B1))
                      (not (Proc26 G1 H1 F1 E1 O A1))
                      (not (Proc19 G1 H1 F1 E1 O W))
                      (not (Proc23 G1 H1 F1 E1 O V))
                      (not (Proc30 G1 H1 F1 E1 O U))
                      (not (Proc28 G1 H1 F1 E1 O T))
                      (not (Proc18 G1 H1 F1 E1 O S))
                      (not (Proc24 G1 H1 F1 E1 O R))
                      (not (Proc25 G1 H1 F1 E1 O Q))
                      (not (Proc22 G1 H1 F1 E1 O P))
                      a!6))))
    (=> a!7 (Proc16 G1 A F1 E1 O K J I H))))))))
(assert (forall ((A Int) (B Int) (C Int) (D Int) (O Bool)) (=> O (Proc32 D C B A O))))
(assert (forall ((A Int) (B Int) (C Int) (D Int) (E Int) (F Int) (O Bool))
  (=> O (Proc33 F E D C O B A))))
(assert (forall ((A Int) (B Int) (C Int) (D Int) (O Bool)) (=> O (Proc35 D C B A O))))
(assert (forall ((A Int)
         (B Int)
         (C Int)
         (D Int)
         (E Int)
         (F Int)
         (G Int)
         (H Int)
         (I Int)
         (J Int)
         (K Int)
         (L Int)
         (M Int)
         (N Int)
         (O Bool)
         (P Int)
         (Q Int)
         (R Int)
         (S Int)
         (T Int)
         (U Int)
         (V Int)
         (W Int)
         (A1 Int)
         (B1 Int)
         (C1 Int)
         (D1 Int)
         (E1 Int)
         (F1 Int)
         (G1 Int)
         (H1 Int)
         (I1 Int)
         (J1 Int)
         (K1 Int)
         (L1 Int)
         (M1 Int)
         (N1 Int)
         (O1 Int)
         (P1 Int)
         (Q1 Int)
         (R1 Int)
         (S1 Int)
         (T1 Int)
         (U1 Int)
         (V1 Int)
         (W1 Int)
         (X1 Int)
         (Y1 Int)
         (Z1 Int)
         (A2 Int)
         (B2 Int)
         (C2 Int)
         (D2 Int)
         (E2 Int)
         (F2 Int)
         (G2 Int)
         (H2 Int)
         (I2 Int)
         (J2 Int)
         (K2 Int))
  (let ((a!1 (and (not (<= I2 (+ 32 K2)))
                  (not (<= I2 J2))
                  (= H2 I2)
                  (not (<= G2 (+ 16 H2)))
                  (not (<= G2 I2))
                  (= F2 G2)
                  (not (<= E2 (+ 240 F2)))
                  (not (<= E2 G2))
                  (= D2 E2)
                  (not (<= C2 (+ 28 D2)))
                  (not (<= C2 E2))
                  (= B2 C2)
                  (not (<= A2 (+ 4 B2)))
                  (not (<= A2 C2))
                  (= Z1 A2)
                  (not (<= Y1 (+ 332 Z1)))))
        (a!2 (and (not (<= Y1 A2))
                  (= X1 Y1)
                  (not (<= W1 (+ 4 X1)))
                  (not (<= W1 Y1))
                  (= V1 W1)
                  (not (<= U1 (+ 536 V1)))
                  (not (<= U1 W1))
                  (= T1 U1)
                  (not (<= S1 (+ 240 T1)))
                  (not (<= S1 U1))
                  (= R1 S1)
                  (not (<= Q1 (+ 240 R1)))
                  (not (<= Q1 S1))
                  (= P1 Q1)
                  (not (<= O1 (+ 240 P1)))
                  (not (<= O1 Q1))
                  (= N1 O1)
                  (not (<= M1 (+ 4 N1)))
                  (not (<= M1 O1))
                  (= L1 M1)
                  (not (<= K1 (+ 536 L1)))
                  (not (<= K1 M1))
                  (= J1 K1)
                  (not (<= I1 (+ 332 J1)))
                  (not (<= I1 K1))
                  (= H1 I1)
                  (not (<= G1 (+ 240 H1)))
                  (not (<= G1 I1))
                  (= F1 G1)
                  (not (<= E1 (+ 240 F1)))
                  (not (<= E1 G1))
                  (= D1 E1)
                  (not (<= C1 (+ 332 D1)))
                  (not (<= C1 E1))
                  (= B1 C1)
                  (not (<= A1 (+ 4 B1)))
                  (not (<= A1 C1))
                  (= W A1)
                  (not (<= V (+ 240 W)))
                  (not (<= V A1))
                  (= U V)
                  (not (<= T (+ 240 U)))
                  (not (<= T V))
                  (= S T)
                  (not (<= R (+ 240 S)))
                  (not (<= R T))
                  (= Q R)
                  (not (<= P (+ 240 Q)))
                  (not (<= P R))
                  (= N P)
                  (not (<= M (+ 240 N)))
                  (not (<= M P))
                  (= L M)
                  (not (<= K (+ 40 L)))
                  (not (<= K M))
                  (= J K)
                  (not (<= I (+ 332 J)))
                  (not (<= I K))
                  (= H I)
                  (not (<= G (+ 4 H)))
                  (not (<= G I))
                  (= F G)
                  (not (<= E (+ 40 F)))
                  (not (<= E G)))))
  (let ((a!3 (not (or (not O) (not (= K2 J2)) (not a!1) (not a!2) (not (= D E))))))
    (=> a!3 (Proc15 J2 C B A O D))))))
(assert (forall ((A Int)
         (B Int)
         (C Int)
         (D Int)
         (E Int)
         (F Int)
         (G Int)
         (H Int)
         (I Int)
         (J Int)
         (K Int)
         (L Int)
         (M Int)
         (N Int)
         (O Bool)
         (X Bool)
         (Y Bool))
  (let ((a!1 (or (not Y) (not (and (Proc17 N M L K true J I H G X F) (not X))))))
    (=> (not a!1) (Proc36 N M L K Y E O D C B A)))))
(assert (let ((a!1 (exists ((V0 Int)
                    (V1 Int)
                    (V2 Int)
                    (V3 Int)
                    (V4 Bool)
                    (V5 Int)
                    (V6 Bool)
                    (V7 Int)
                    (V8 Int)
                    (V9 Int)
                    (V10 Int))
             (not (=> (and (Proc36 V0 V1 V2 V3 V4 V5 V6 V7 V8 V9 V10)
                           (not false))
                      false)))))
  (not a!1)))

(check-sat)
